treewidth/data/OrthogonalPolarGraph_5_2.gr
p tw 15 45
1 2
1 8
1 13
1 14
1 15
1 3
2 8
2 9
2 10
2 11
2 12
8 4
8 5
8 6
8 7
9 11
9 13
9 15
9 4
9 6
10 12
10 13
10 15
10 5
10 7
11 14
11 3
11 5
11 7
12 14
12 3
12 4
12 6
13 14
13 4
13 5
14 6
14 7
15 3
15 6
15 7
3 4
3 5
4 7
5 6
