treewidth/data/OrthogonalPolarGraph_5_2.td
c width = 9, time = 0.201255
s td 6 10 15
b 1 1 5 6 7 8 9 11 12 13 15
b 2 1 5 7 8 9 10 11 12 13 15
b 3 1 2 8 9 10 11 12
b 4 1 4 5 7 8 9 11 12 13 15
b 5 1 3 4 5 11 12 15
b 6 1 6 7 11 12 13 14
2 3
1 2
4 5
1 4
1 6
